c 0.005680561065673828 (encode time in sec)
p cnf 179 280
1 2 3 4 0
1 2 -3 4 0
1 -2 3 4 0
1 -2 -3 4 0
-1 2 3 4 0
-1 2 -3 0
-1 -2 3 0
-1 -2 -3 0
5 6 7 8 0
5 6 -7 8 0
5 -6 7 8 0
5 -6 -7 8 0
-5 6 7 8 0
-5 6 -7 0
-5 -6 7 0
-5 -6 -7 0
9 10 11 12 0
9 10 -11 12 0
9 -10 11 12 0
9 -10 -11 12 0
-9 10 11 12 0
-9 10 -11 0
-9 -10 11 0
-9 -10 -11 0
13 14 15 1 2 3 5 6 7 53 0
13 14 15 1 2 3 5 6 -7 54 0
13 14 15 1 2 3 5 -6 7 55 0
13 14 15 1 2 3 5 -6 -7 81 0
13 14 15 1 2 3 -5 6 7 76 0
13 14 15 1 2 -3 5 6 7 56 0
13 14 15 1 2 -3 5 6 -7 82 0
13 14 15 1 2 -3 5 -6 7 40 0
13 14 15 1 2 -3 5 -6 -7 36 0
13 14 15 1 2 -3 -5 6 7 93 0
13 14 15 1 -2 3 5 6 7 16 0
13 14 15 1 -2 3 5 6 -7 71 0
13 14 15 1 -2 3 5 -6 7 34 0
13 14 15 1 -2 3 5 -6 -7 70 0
13 14 15 1 -2 3 -5 6 7 85 0
13 14 15 1 -2 -3 5 6 7 41 0
13 14 15 1 -2 -3 5 6 -7 64 0
13 14 15 1 -2 -3 5 -6 7 85 0
13 14 15 1 -2 -3 5 -6 -7 91 0
13 14 15 1 -2 -3 -5 6 7 76 0
13 14 15 -1 2 3 5 6 7 17 0
13 14 15 -1 2 3 5 6 -7 48 0
13 14 15 -1 2 3 5 -6 7 46 0
13 14 15 -1 2 3 5 -6 -7 37 0
13 14 15 -1 2 3 -5 6 7 34 0
13 14 -15 1 2 3 5 6 7 65 0
13 14 -15 1 2 3 5 6 -7 74 0
13 14 -15 1 2 3 5 -6 7 43 0
13 14 -15 1 2 3 5 -6 -7 50 0
13 14 -15 1 2 3 -5 6 7 25 0
13 14 -15 1 2 -3 5 6 7 83 0
13 14 -15 1 2 -3 5 6 -7 19 0
13 14 -15 1 2 -3 5 -6 7 57 0
13 14 -15 1 2 -3 5 -6 -7 59 0
13 14 -15 1 2 -3 -5 6 7 77 0
13 14 -15 1 -2 3 5 6 7 58 0
13 14 -15 1 -2 3 5 6 -7 20 0
13 14 -15 1 -2 3 5 -6 7 30 0
13 14 -15 1 -2 3 5 -6 -7 70 0
13 14 -15 1 -2 3 -5 6 7 85 0
13 14 -15 1 -2 -3 5 6 7 38 0
13 14 -15 1 -2 -3 5 6 -7 88 0
13 14 -15 1 -2 -3 5 -6 7 42 0
13 14 -15 1 -2 -3 5 -6 -7 91 0
13 14 -15 1 -2 -3 -5 6 7 76 0
13 14 -15 -1 2 3 5 6 7 89 0
13 14 -15 -1 2 3 5 6 -7 72 0
13 14 -15 -1 2 3 5 -6 7 46 0
13 14 -15 -1 2 3 5 -6 -7 37 0
13 14 -15 -1 2 3 -5 6 7 34 0
13 -14 15 1 2 3 5 6 7 65 0
13 -14 15 1 2 3 5 6 -7 96 0
13 -14 15 1 2 3 5 -6 7 26 0
13 -14 15 1 2 3 5 -6 -7 78 0
13 -14 15 1 2 3 -5 6 7 28 0
13 -14 15 1 2 -3 5 6 7 70 0
13 -14 15 1 2 -3 5 6 -7 66 0
13 -14 15 1 2 -3 5 -6 7 44 0
13 -14 15 1 2 -3 5 -6 -7 51 0
13 -14 15 1 2 -3 -5 6 7 31 0
13 -14 15 1 -2 3 5 6 7 90 0
13 -14 15 1 -2 3 5 6 -7 22 0
13 -14 15 1 -2 3 5 -6 7 60 0
13 -14 15 1 -2 3 5 -6 -7 86 0
13 -14 15 1 -2 3 -5 6 7 80 0
13 -14 15 1 -2 -3 5 6 7 61 0
13 -14 15 1 -2 -3 5 6 -7 97 0
13 -14 15 1 -2 -3 5 -6 7 75 0
13 -14 15 1 -2 -3 5 -6 -7 29 0
13 -14 15 1 -2 -3 -5 6 7 76 0
13 -14 15 -1 2 3 5 6 7 33 0
13 -14 15 -1 2 3 5 6 -7 84 0
13 -14 15 -1 2 3 5 -6 7 62 0
13 -14 15 -1 2 3 5 -6 -7 37 0
13 -14 15 -1 2 3 -5 6 7 34 0
13 -14 -15 1 2 3 5 6 7 65 0
13 -14 -15 1 2 3 5 6 -7 99 0
13 -14 -15 1 2 3 5 -6 7 65 0
13 -14 -15 1 2 3 5 -6 -7 27 0
13 -14 -15 1 2 3 -5 6 7 87 0
13 -14 -15 1 2 -3 5 6 7 70 0
13 -14 -15 1 2 -3 5 6 -7 99 0
13 -14 -15 1 2 -3 5 -6 7 27 0
13 -14 -15 1 2 -3 5 -6 -7 51 0
13 -14 -15 1 2 -3 -5 6 7 45 0
13 -14 -15 1 -2 3 5 6 7 95 0
13 -14 -15 1 -2 3 5 6 -7 49 0
13 -14 -15 1 -2 3 5 -6 7 21 0
13 -14 -15 1 -2 3 5 -6 -7 39 0
13 -14 -15 1 -2 3 -5 6 7 79 0
13 -14 -15 1 -2 -3 5 6 7 37 0
13 -14 -15 1 -2 -3 5 6 -7 18 0
13 -14 -15 1 -2 -3 5 -6 7 23 0
13 -14 -15 1 -2 -3 5 -6 -7 24 0
13 -14 -15 1 -2 -3 -5 6 7 67 0
13 -14 -15 -1 2 3 5 6 7 71 0
13 -14 -15 -1 2 3 5 6 -7 101 0
13 -14 -15 -1 2 3 5 -6 7 100 0
13 -14 -15 -1 2 3 5 -6 -7 61 0
13 -14 -15 -1 2 3 -5 6 7 34 0
-13 14 15 1 2 3 5 6 7 65 0
-13 14 15 1 2 3 5 6 -7 99 0
-13 14 15 1 2 3 5 -6 7 65 0
-13 14 15 1 2 3 5 -6 -7 35 0
-13 14 15 1 2 3 -5 6 7 32 0
-13 14 15 1 2 -3 5 6 7 70 0
-13 14 15 1 2 -3 5 6 -7 99 0
-13 14 15 1 2 -3 5 -6 7 35 0
-13 14 15 1 2 -3 5 -6 -7 68 0
-13 14 15 1 2 -3 -5 6 7 47 0
-13 14 15 1 -2 3 5 6 7 95 0
-13 14 15 1 -2 3 5 6 -7 35 0
-13 14 15 1 -2 3 5 -6 7 34 0
-13 14 15 1 -2 3 5 -6 -7 83 0
-13 14 15 1 -2 3 -5 6 7 69 0
-13 14 15 1 -2 -3 5 6 7 37 0
-13 14 15 1 -2 -3 5 6 -7 64 0
-13 14 15 1 -2 -3 5 -6 7 85 0
-13 14 15 1 -2 -3 5 -6 -7 92 0
-13 14 15 1 -2 -3 -5 6 7 94 0
-13 14 15 -1 2 3 5 6 7 63 0
-13 14 15 -1 2 3 5 6 -7 73 0
-13 14 15 -1 2 3 5 -6 7 47 0
-13 14 15 -1 2 3 5 -6 -7 98 0
-13 14 15 -1 2 3 -5 6 7 52 0
-13 14 -15 0
-13 -14 15 0
-13 -14 -15 0
102 103 104 9 10 11 13 14 15 105 0
102 103 104 9 10 11 13 14 -15 106 0
102 103 104 9 10 11 13 -14 15 107 0
102 103 104 9 10 11 13 -14 -15 124 0
102 103 104 9 10 11 -13 14 15 123 0
102 103 104 9 10 -11 13 14 15 108 0
102 103 104 9 10 -11 13 14 -15 144 0
102 103 104 9 10 -11 13 -14 15 145 0
102 103 104 9 10 -11 13 -14 -15 161 0
102 103 104 9 10 -11 -13 14 15 177 0
102 103 104 9 -10 11 13 14 15 109 0
102 103 104 9 -10 11 13 14 -15 127 0
102 103 104 9 -10 11 13 -14 15 164 0
102 103 104 9 -10 11 13 -14 -15 164 0
102 103 104 9 -10 11 -13 14 15 168 0
102 103 104 9 -10 -11 13 14 15 111 0
102 103 104 9 -10 -11 13 14 -15 123 0
102 103 104 9 -10 -11 13 -14 15 139 0
102 103 104 9 -10 -11 13 -14 -15 165 0
102 103 104 9 -10 -11 -13 14 15 170 0
102 103 104 -9 10 11 13 14 15 110 0
102 103 104 -9 10 11 13 14 -15 162 0
102 103 104 -9 10 11 13 -14 15 162 0
102 103 104 -9 10 11 13 -14 -15 112 0
102 103 104 -9 10 11 -13 14 15 171 0
102 103 -104 9 10 11 13 14 15 124 0
102 103 -104 9 10 11 13 14 -15 113 0
102 103 -104 9 10 11 13 -14 15 114 0
102 103 -104 9 10 11 13 -14 -15 115 0
102 103 -104 9 10 11 -13 14 15 123 0
102 103 -104 9 10 -11 13 14 15 118 0
102 103 -104 9 10 -11 13 14 -15 132 0
102 103 -104 9 10 -11 13 -14 15 128 0
102 103 -104 9 10 -11 13 -14 -15 161 0
102 103 -104 9 10 -11 -13 14 15 177 0
102 103 -104 9 -10 11 13 14 15 129 0
102 103 -104 9 -10 11 13 14 -15 119 0
102 103 -104 9 -10 11 13 -14 15 146 0
102 103 -104 9 -10 11 13 -14 -15 164 0
102 103 -104 9 -10 11 -13 14 15 168 0
102 103 -104 9 -10 -11 13 14 15 147 0
102 103 -104 9 -10 -11 13 14 -15 116 0
102 103 -104 9 -10 -11 13 -14 15 172 0
102 103 -104 9 -10 -11 13 -14 -15 165 0
102 103 -104 9 -10 -11 -13 14 15 170 0
102 103 -104 -9 10 11 13 14 15 175 0
102 103 -104 -9 10 11 13 14 -15 153 0
102 103 -104 -9 10 11 13 -14 15 162 0
102 103 -104 -9 10 11 13 -14 -15 112 0
102 103 -104 -9 10 11 -13 14 15 171 0
102 -103 104 9 10 11 13 14 15 124 0
102 -103 104 9 10 11 13 14 -15 176 0
102 -103 104 9 10 11 13 -14 15 136 0
102 -103 104 9 10 11 13 -14 -15 173 0
102 -103 104 9 10 11 -13 14 15 135 0
102 -103 104 9 10 -11 13 14 15 118 0
102 -103 104 9 10 -11 13 14 -15 137 0
102 -103 104 9 10 -11 13 -14 15 158 0
102 -103 104 9 10 -11 13 -14 -15 154 0
102 -103 104 9 10 -11 -13 14 15 177 0
102 -103 104 9 -10 11 13 14 15 142 0
102 -103 104 9 -10 11 13 14 -15 148 0
102 -103 104 9 -10 11 13 -14 15 155 0
102 -103 104 9 -10 11 13 -14 -15 166 0
102 -103 104 9 -10 11 -13 14 15 168 0
102 -103 104 9 -10 -11 13 14 15 142 0
102 -103 104 9 -10 -11 13 14 -15 149 0
102 -103 104 9 -10 -11 13 -14 15 120 0
102 -103 104 9 -10 -11 13 -14 -15 150 0
102 -103 104 9 -10 -11 -13 14 15 170 0
102 -103 104 -9 10 11 13 14 15 141 0
102 -103 104 -9 10 11 13 14 -15 133 0
102 -103 104 -9 10 11 13 -14 15 163 0
102 -103 104 -9 10 11 13 -14 -15 112 0
102 -103 104 -9 10 11 -13 14 15 171 0
102 -103 -104 9 10 11 13 14 15 124 0
102 -103 -104 9 10 11 13 14 -15 176 0
102 -103 -104 9 10 11 13 -14 15 143 0
102 -103 -104 9 10 11 13 -14 -15 125 0
102 -103 -104 9 10 11 -13 14 15 117 0
102 -103 -104 9 10 -11 13 14 15 118 0
102 -103 -104 9 10 -11 13 14 -15 118 0
102 -103 -104 9 10 -11 13 -14 15 145 0
102 -103 -104 9 10 -11 13 -14 -15 138 0
102 -103 -104 9 10 -11 -13 14 15 179 0
102 -103 -104 9 -10 11 13 14 15 142 0
102 -103 -104 9 -10 11 13 14 -15 164 0
102 -103 -104 9 -10 11 13 -14 15 167 0
102 -103 -104 9 -10 11 13 -14 -15 121 0
102 -103 -104 9 -10 11 -13 14 15 151 0
102 -103 -104 9 -10 -11 13 14 15 142 0
102 -103 -104 9 -10 -11 13 14 -15 123 0
102 -103 -104 9 -10 -11 13 -14 15 178 0
102 -103 -104 9 -10 -11 13 -14 -15 159 0
102 -103 -104 9 -10 -11 -13 14 15 157 0
102 -103 -104 -9 10 11 13 14 15 161 0
102 -103 -104 -9 10 11 13 14 -15 152 0
102 -103 -104 -9 10 11 13 -14 15 126 0
102 -103 -104 -9 10 11 13 -14 -15 134 0
102 -103 -104 -9 10 11 -13 14 15 171 0
-102 103 104 9 10 11 13 14 15 124 0
-102 103 104 9 10 11 13 14 -15 176 0
-102 103 104 9 10 11 13 -14 15 143 0
-102 103 104 9 10 11 13 -14 -15 124 0
-102 103 104 9 10 11 -13 14 15 160 0
-102 103 104 9 10 -11 13 14 15 118 0
-102 103 104 9 10 -11 13 14 -15 118 0
-102 103 104 9 10 -11 13 -14 15 145 0
-102 103 104 9 10 -11 13 -14 -15 161 0
-102 103 104 9 10 -11 -13 14 15 130 0
-102 103 104 9 -10 11 13 14 15 142 0
-102 103 104 9 -10 11 13 14 -15 164 0
-102 103 104 9 -10 11 13 -14 15 164 0
-102 103 104 9 -10 11 13 -14 -15 148 0
-102 103 104 9 -10 11 -13 14 15 156 0
-102 103 104 9 -10 -11 13 14 15 142 0
-102 103 104 9 -10 -11 13 14 -15 123 0
-102 103 104 9 -10 -11 13 -14 15 139 0
-102 103 104 9 -10 -11 13 -14 -15 131 0
-102 103 104 9 -10 -11 -13 14 15 169 0
-102 103 104 -9 10 11 13 14 15 161 0
-102 103 104 -9 10 11 13 14 -15 162 0
-102 103 104 -9 10 11 13 -14 15 122 0
-102 103 104 -9 10 11 13 -14 -15 174 0
-102 103 104 -9 10 11 -13 14 15 140 0
-102 103 -104 0
-102 -103 104 0
-102 -103 -104 0
